VACCINE = Vaccine(1..3);
m = 24;
age = [YOUTH, CHILD, BABY, ANCIENT, CHILD, SENIOR, ADULT, AGED, CHILD, AGED, SENIOR, ANCIENT, ADULT, BABY, AGED, ADULT, BABY, BABY, CHILD, ADULT, CHILD, ANCIENT, AGED, ANCIENT];
gender = [OTHER, MALE, FEMALE, OTHER, OTHER, FEMALE, FEMALE, OTHER, MALE, FEMALE, MALE, OTHER, MALE, OTHER, OTHER, FEMALE, FEMALE, OTHER, MALE, MALE, FEMALE, FEMALE, FEMALE, MALE];
health = [GOOD, POOR, COMPROMISED, POOR, POOR, POOR, COMPROMISED, COMPROMISED, POOR, POOR, POOR, COMPROMISED, COMPROMISED, POOR, GOOD, GOOD, COMPROMISED, POOR, GOOD, POOR, GOOD, POOR, POOR, COMPROMISED];
exposure = [LOW, EXTREME, AVERAGE, HIGH, LOW, HIGH, HIGH, HIGH, HIGH, EXTREME, LOW, EXTREME, HIGH, LOW, HIGH, HIGH, EXTREME, HIGH, LOW, LOW, LOW, EXTREME, AVERAGE, EXTREME];
size = [8, 3, 3, 4, 5, 5, 7, 7, 3, 8, 8, 4, 3, 3, 4, 5, 4, 8, 4, 8, 8, 4, 5, 3];
minsize = 3;
age_group_min = [0, 1, 0, 0, 0, 0, 0];
age_group_max = [11, 17, 11, 20, 9, 14, 20];
max_people_diff = 57;
max_share_vaccines = 3;
health_information = {8, 13, 21};
exposure_information = {7, 10, 14, 17};